<?xml version = "1.0" standalone="yes"?>
<!-- This file has been generated by DOcplex version 2.23.222  -->
<CPLEXSolution version="1.0">
 <header
   problemName="CVRP"
   objectiveValue="12927.4"
  />
 <variables>
  <variable name="x_0_1" index="0" value="1.00000"/>
  <variable name="x_0_2" index="1" value="1.00000"/>
  <variable name="x_0_3" index="2" value="1.00000"/>
  <variable name="x_0_4" index="3" value="1.00000"/>
  <variable name="x_0_6" index="5" value="1.00000"/>
  <variable name="x_0_7" index="6" value="1.00000"/>
  <variable name="x_0_8" index="7" value="1.00000"/>
  <variable name="x_0_9" index="8" value="1.00000"/>
  <variable name="x_0_10" index="9" value="1.00000"/>
  <variable name="x_0_11" index="10" value="1.00000"/>
  <variable name="x_0_12" index="11" value="1.00000"/>
  <variable name="x_0_17" index="16" value="1.00000"/>
  <variable name="x_0_19" index="18" value="1.00000"/>
  <variable name="x_0_20" index="19" value="1.00000"/>
  <variable name="x_1_16" index="40" value="1.00000"/>
  <variable name="x_2_25" index="74" value="1.00000"/>
  <variable name="x_3_0" index="75" value="1.00000"/>
  <variable name="x_4_15" index="114" value="1.00000"/>
  <variable name="x_5_0" index="125" value="1.00000"/>
  <variable name="x_6_22" index="171" value="1.00000"/>
  <variable name="x_7_14" index="188" value="1.00000"/>
  <variable name="x_8_23" index="222" value="1.00000"/>
  <variable name="x_9_0" index="225" value="1.00000"/>
  <variable name="x_10_24" index="273" value="1.00000"/>
  <variable name="x_11_18" index="292" value="1.00000"/>
  <variable name="x_12_0" index="300" value="1.00000"/>
  <variable name="x_13_0" index="325" value="1.00000"/>
  <variable name="x_14_0" index="350" value="1.00000"/>
  <variable name="x_15_21" index="395" value="1.00000"/>
  <variable name="x_16_0" index="400" value="1.00000"/>
  <variable name="x_17_0" index="425" value="1.00000"/>
  <variable name="x_18_0" index="450" value="1.00000"/>
  <variable name="x_19_0" index="475" value="1.00000"/>
  <variable name="x_20_0" index="500" value="1.00000"/>
  <variable name="x_21_0" index="525" value="1.00000"/>
  <variable name="x_22_0" index="550" value="1.00000"/>
  <variable name="x_23_0" index="575" value="1.00000"/>
  <variable name="x_24_13" index="613" value="1.00000"/>
  <variable name="x_25_5" index="630" value="1.00000"/>
  <variable name="u_1" index="650" value="4.00000"/>
  <variable name="u_2" index="651" value="2.00000"/>
  <variable name="u_3" index="652" value="20.00000"/>
  <variable name="u_4" index="653" value="8.00000"/>
  <variable name="u_5" index="654" value="20.00000"/>
  <variable name="u_6" index="655" value="12.00000"/>
  <variable name="u_7" index="656" value="14.00000"/>
  <variable name="u_8" index="657" value="14.00000"/>
  <variable name="u_9" index="658" value="19.00000"/>
  <variable name="u_10" index="659" value="3.00000"/>
  <variable name="u_11" index="660" value="19.00000"/>
  <variable name="u_12" index="661" value="20.00000"/>
  <variable name="u_13" index="662" value="20.00000"/>
  <variable name="u_14" index="663" value="17.00000"/>
  <variable name="u_15" index="664" value="14.00000"/>
  <variable name="u_16" index="665" value="17.00000"/>
  <variable name="u_17" index="666" value="20.00000"/>
  <variable name="u_18" index="667" value="20.00000"/>
  <variable name="u_19" index="668" value="20.00000"/>
  <variable name="u_20" index="669" value="18.00000"/>
  <variable name="u_21" index="670" value="20.00000"/>
  <variable name="u_22" index="671" value="20.00000"/>
  <variable name="u_23" index="672" value="20.00000"/>
  <variable name="u_24" index="673" value="16.00000"/>
  <variable name="u_25" index="674" value="15.00000"/>
 </variables>
</CPLEXSolution>
